NAME : pr264.66998.tour
COMMENT : Cost = 22876_66998
COMMENT : Found by LKH [Keld Helsgaun] Thu Nov 16 14:48:53 2017
TYPE : TOUR
DIMENSION : 266
TOUR_SECTION
1
38
37
61
60
121
120
119
129
142
172
173
174
218
219
243
244
241
242
220
221
169
170
171
143
144
166
167
168
222
223
239
240
264
237
238
224
225
163
164
165
145
146
147
148
162
161
226
160
159
158
149
155
156
157
227
228
235
236
233
232
234
229
230
231
151
152
153
154
150
40
266
39
34
35
36
62
65
31
32
33
28
29
30
66
67
68
69
25
26
27
22
23
24
70
71
104
105
102
103
72
73
19
20
21
16
17
18
74
75
98
99
100
95
96
97
76
77
13
14
15
10
11
12
78
79
92
93
94
89
90
91
80
81
7
8
9
4
3
2
5
6
82
83
84
85
86
87
88
132
131
130
101
106
107
108
109
110
111
112
113
114
115
64
63
116
117
118
59
57
58
122
123
124
125
128
126
127
55
54
53
56
50
51
52
47
48
49
46
45
44
43
42
41
265
141
175
176
177
216
217
245
246
247
248
214
215
178
179
180
140
139
181
182
183
212
213
249
250
251
252
210
211
184
185
186
138
137
187
188
189
208
209
253
254
263
262
261
260
259
203
200
201
202
198
197
196
199
133
134
135
195
194
193
205
204
258
257
255
256
206
207
190
191
192
136
-1
EOF
